%NPROC=1
%MEM=1024MB
# HF/STO-3G NMR=GIAO INTEGRAL=(GRID=ULTRAFINE) CPHF=(GRID=FINE)

-------------------------------- # Center 1

0 3
6   0.00000   0.00000   0.00000
6   0.00000   0.00000   1.39415
6   1.20730   0.00000   2.09123
6   2.41482   0.00000   1.39426
6   2.41482   0.00000   0.00021
6   1.20743   0.00000   -0.69692
1   1.20767   0.00000   -1.78249
1   3.35498   0.00000   -0.54254
1   3.35486   0.00000   1.93718
1   1.20720   0.00002   3.17680
1   -0.94022   0.00000   1.93679
1   -0.94011   0.00000   -0.54281
0   1.20739   0.00000   0.69715
0   1.20740   -1.00000   0.69715
1   -0.07548   -0.99620   -0.04358
1   -0.07548   -0.99620   1.43772
1   1.20730   -0.99620   2.17839
1   2.49030   -0.99620   1.43783
1   2.49030   -0.99620   -0.04336
1   1.20743   -0.99620   -0.78408
0   6.94112   -4.99998   -3.44103
0   5.79438   -3.99998   -2.61339
0   -2.23284   2.99999   3.18006
bq 5.00000     5.00000     5.00000
bq 4.00000     4.00000     4.00000
bq -3.00000     -3.00000     -3.00000

