%NPROC=16
%MEM=31744MB
# B3LYP/6-311+G* SCF=MAXCYCLE=2000 NMR=GIAO INTEGRAL=(GRID=ULTRAFINE) CPHF=(GRID=FINE)

-------------------------------- # Center 1

0 1
6   -1.20739   0.69715   -0.00000
6   -1.20739   -0.69700   0.00000
6   -0.00009   -1.39408   0.00000
6   1.20742   -0.69710   0.00000
6   1.20742   0.69695   -0.00000
6   0.00003   1.39408   -0.00000
1   0.00028   2.47965   -0.00000
1   2.14758   1.23970   -0.00000
1   2.14746   -1.24003   0.00000
1   -0.00020   -2.47965   0.00002
1   -2.14762   -1.23963   0.00000
1   -2.14750   1.23996   -0.00000
1   -1.28287   0.74074   -0.99620
1   -1.28288   -0.74057   -0.99620
1   -0.00009   -1.48123   -0.99619
1   1.28290   -0.74068   -0.99620
1   1.28291   0.74051   -0.99620
1   0.00004   1.48123   -0.99620
bq     -0.00000     0.00000     0.00000
bq     -0.00000     0.00000     0.10000
bq     -0.00000     0.00000     0.20000
bq     -0.00000     0.00000     0.30000
bq     -0.00000     0.00000     0.40000
bq     -0.00000     0.00000     0.50000
bq     -0.00000     0.00000     0.60000
bq     -0.00000     0.00000     0.70000
bq     -0.00000     0.00000     0.80000
bq     -0.00000     0.00000     0.90000
bq     -0.00000     0.00000     1.00000
bq     -0.00000     0.00000     1.10000
bq     -0.00000     0.00000     1.20000
bq     -0.00000     0.00000     1.30000
bq     -0.00000     0.00000     1.40000
bq     -0.00000     0.00000     1.50000
bq     -0.00000     0.00000     1.60000
bq     -0.00000     0.00000     1.70000
bq     -0.00000     0.00000     1.80000
bq     -0.00000     0.00000     1.90000
bq     -0.00000     0.00000     2.00000
bq     -0.00000     0.00000     2.10000
bq     -0.00000     0.00000     2.20000
bq     -0.00000     0.00000     2.30000
bq     -0.00000     0.00000     2.40000
bq     -0.00000     0.00000     2.50000
bq     -0.00000     0.00000     2.60000
bq     -0.00000     0.00000     2.70000
bq     -0.00000     0.00000     2.80000
bq     -0.00000     0.00000     2.90000
bq     -0.00000     0.00000     3.00000
bq     -0.00000     0.00000     3.10000
bq     -0.00000     0.00000     3.20000
bq     -0.00000     0.00000     3.30000
bq     -0.00000     0.00000     3.40000
bq     -0.00000     0.00000     3.50000
bq     -0.00000     0.00000     3.60000
bq     -0.00000     0.00000     3.70000
bq     -0.00000     0.00000     3.80000
bq     -0.00000     0.00000     3.90000

