%NPROC=1
%MEM=1024MB
# B3LYP/6-311+G* NMR=GIAO INTEGRAL=(GRID=ULTRAFINE) CPHF=(GRID=FINE)

---------------------------------------------- # Center 1

0 3
6   0.00000   0.00000   0.00000
6   0.00000   0.00000   1.39402
6   1.20726   0.00000   2.09103
6   2.41452   0.00000   1.39402
6   2.41452   0.00000   -0.00001
6   1.20726   0.00000   -0.69701
1   1.20726   0.00000   -1.78258
1   3.35464   0.00000   -0.54279
1   3.35465   0.00000   1.93680
1   1.20725   0.00000   3.17660
1   -0.94013   0.00000   1.93681
1   -0.94013   0.00000   -0.54278
0   1.20726   0.00000   0.69701
0   1.20726   -1.00000   0.69701
1   -0.07548   -0.99620   -0.04358
1   1.20726   -0.99620   2.17819
1   2.48999   -0.99620   -0.04358
1   -0.07548   -0.99620   1.43760
1   2.48999   -0.99620   1.43759
1   1.20726   -0.99620   -0.78417
bq 5.00000     5.00000     5.00000
bq 4.00000     4.00000     4.00000
bq -3.00000     -3.00000     -3.00000

