%NPROC=1
%MEM=1024MB
# B3LYP/6-311+G* NMR=GIAO INTEGRAL=(GRID=ULTRAFINE) CPHF=(GRID=FINE)

--------------- # Center 1

0 1
6   -1.30316   0.49558   0.00000
6   -1.08072   -0.88071   0.00000
6   0.22234   -1.37623   0.00000
6   1.30318   -0.49553   -0.00000
6   1.08076   0.88066   -0.00000
6   -0.22240   1.37622   -0.00000
1   -2.31783   0.88144   -0.00001
1   -1.92232   -1.56641   -0.00001
1   0.39544   -2.44792   -0.00001
1   2.31780   -0.88151   -0.00001
1   1.92227   1.56647   0.00000
1   -0.39536   2.44793   0.00001
bq     0.00000     -0.00000     -0.00000
bq     0.00000     -0.00000     0.10000
bq     0.00000     -0.00000     0.20000
bq     0.00000     -0.00000     0.30000
bq     0.00000     -0.00000     0.40000
bq     0.00000     -0.00000     0.50000
bq     0.00000     -0.00000     0.60000
bq     0.00000     -0.00000     0.70000
bq     0.00000     -0.00000     0.80000
bq     0.00000     -0.00000     0.90000
bq     0.00000     -0.00000     1.00000
bq     0.00000     -0.00000     1.10000
bq     0.00000     -0.00000     1.20000
bq     0.00000     -0.00000     1.30000
bq     0.00000     -0.00000     1.40000
bq     0.00000     -0.00000     1.50000
bq     0.00000     -0.00000     1.60000
bq     0.00000     -0.00000     1.70000
bq     0.00000     -0.00000     1.80000
bq     0.00000     -0.00000     1.90000
bq     0.00000     -0.00000     2.00000
bq     0.00000     -0.00000     2.10000
bq     0.00000     -0.00000     2.20000
bq     0.00000     -0.00000     2.30000
bq     0.00000     -0.00000     2.40000
bq     0.00000     -0.00000     2.50000
bq     0.00000     -0.00000     2.60000
bq     0.00000     -0.00000     2.70000
bq     0.00000     -0.00000     2.80000
bq     0.00000     -0.00000     2.90000
bq     0.00000     -0.00000     3.00000
bq     0.00000     -0.00000     3.10000
bq     0.00000     -0.00000     3.20000
bq     0.00000     -0.00000     3.30000
bq     0.00000     -0.00000     3.40000
bq     0.00000     -0.00000     3.50000
bq     0.00000     -0.00000     3.60000
bq     0.00000     -0.00000     3.70000
bq     0.00000     -0.00000     3.80000
bq     0.00000     -0.00000     3.90000

