%NPROC=1
%MEM=1024MB
# HF/STO-3G NMR=GIAO INTEGRAL=(GRID=ULTRAFINE) CPHF=(GRID=FINE)

--------------- # Center 1

0 1
6   -1.30316   0.49558   0.00000
6   -1.08072   -0.88071   0.00000
6   0.22234   -1.37623   0.00001
6   1.30318   -0.49552   0.00000
6   1.08076   0.88067   -0.00000
6   -0.22240   1.37622   -0.00000
1   -2.31783   0.88144   -0.00001
1   -1.92232   -1.56641   -0.00001
1   0.39544   -2.44792   -0.00001
1   2.31780   -0.88151   -0.00001
1   1.92227   1.56647   0.00000
1   -0.39536   2.44793   0.00001
bq 5.00000     5.00000     5.00000
bq 4.00000     4.00000     4.00000
bq -3.00000     -3.00000     -3.00000

