%NPROC=1
%MEM=1024MB
# B3LYP/6-311+G* NMR=GIAO INTEGRAL=(GRID=ULTRAFINE) CPHF=(GRID=FINE)

---------------------------------------------- # Center 1

0 3
6   -1.20726   0.69701   -0.00000
6   -1.20726   -0.69701   0.00000
6   0.00000   -1.39402   0.00000
6   1.20726   -0.69701   0.00000
6   1.20726   0.69701   -0.00000
6   0.00000   1.39402   -0.00000
1   0.00000   2.47959   -0.00000
1   2.14738   1.23980   -0.00000
1   2.14739   -1.23979   0.00000
1   -0.00000   -2.47959   0.00000
1   -2.14738   -1.23980   0.00000
1   -2.14739   1.23979   -0.00000
1   -1.28274   0.74059   -0.99620
1   0.00000   -1.48118   -0.99619
1   1.28274   0.74059   -0.99620
1   -1.28274   -0.74059   -0.99620
1   1.28274   -0.74059   -0.99620
1   0.00000   1.48118   -0.99620
bq     -0.00000     -0.00000     0.00000
bq     -0.00000     -0.00000     0.30000
bq     -0.00000     -0.00000     0.60000
bq     -0.00000     -0.00000     0.90000
bq     -0.00000     -0.00000     1.20000
bq     -0.00000     -0.00000     1.50000
bq     -0.00000     -0.00000     1.80000
bq     -0.00000     -0.00000     2.10000
bq     -0.00000     -0.00000     2.40000
bq     -0.00000     -0.00000     2.70000
bq     -0.00000     -0.00000     3.00000
bq     -0.00000     -0.00000     3.30000
bq     -0.00000     -0.00000     3.60000

