%chk=/home/stanger/chk/benzene-4-anuja
%nprocshared=16
%mem=14336MB
# b3lyp/6-311g(d) 6d opt freq

benzene-4-anuja

0 1
 C                  0.31220436    0.18448439    0.00000000
 C                  1.70736436    0.18448439    0.00000000
 C                  2.40490236    1.39223539    0.00000000
 C                  1.70724836    2.60074439   -0.00119900
 C                  0.31242336    2.60066639   -0.00167800
 C                 -0.38517764    1.39246039   -0.00068200
 H                 -0.23755464   -0.76783261    0.00045000
 H                  2.25687236   -0.76802861    0.00131500
 H                  3.50458236    1.39231539    0.00063400
 H                  2.25744836    3.55288739   -0.00125800
 H                 -0.23769864    3.55294739   -0.00263100
 H                 -1.48478164    1.39264339   -0.00086200


