%NPROC=1
%MEM=1024MB
# HF/STO-3G NMR=GIAO INTEGRAL=(GRID=ULTRAFINE) CPHF=(GRID=FINE)

--------------------------------- # Center 2

0 1
6   -1.31965   0.68714   -0.00000
6   -1.31965   -0.68714   -0.00000
6   1.32818   -0.67671   0.00000
6   1.32818   0.67671   0.00000
1   0.01169   2.70913   0.00000
1   0.01169   -2.70913   0.00000
1   2.28667   -1.19794   0.00000
1   2.28667   1.19794   0.00000
6   -3.99520   1.44283   0.00000
6   -5.21077   0.68972   0.00000
6   -5.21077   -0.68972   0.00000
6   -3.99520   -1.44283   0.00000
6   -2.84443   -0.71016   -0.00000
6   -2.84443   0.71016   -0.00000
1   -4.01664   2.52769   0.00000
1   -6.15751   1.22032   0.00000
1   -6.15751   -1.22032   0.00000
1   -4.01664   -2.52769   0.00000
5   -0.00853   -1.51505   0.00000
5   -0.00853   1.51505   0.00000
bq     -3.64443     -0.00000     1.70000
bq     -3.74443     -0.00000     1.70000
bq     -3.84443     -0.00000     1.70000
bq     -3.94443     -0.00000     1.70000
bq     -4.01680     -0.00000     1.70000
bq     -4.11680     -0.00000     1.70000
bq     -4.21680     -0.00000     1.70000
bq     -4.31680     -0.00000     1.70000
bq     -4.41680     -0.00000     1.70000
bq     -4.51680     -0.00000     1.70000
bq     -4.61680     -0.00000     1.70000
bq     -4.71680     -0.00000     1.70000
bq     -4.81680     -0.00000     1.70000
bq     -4.91680     -0.00000     1.70000
bq     -5.01680     -0.00000     1.70000
bq     -5.11680     -0.00000     1.70000
bq     -5.21680     0.00000     1.70000

