%NPROC=1
%MEM=1024MB
# HF/STO-3G NMR=GIAO INTEGRAL=(GRID=ULTRAFINE) CPHF=(GRID=FINE)

--------------------------------- # Center 1

0 1
6   -1.31965   0.68714   -0.00000
6   -1.31965   -0.68714   -0.00000
6   1.32818   -0.67671   0.00000
6   1.32818   0.67671   0.00000
1   0.01169   2.70913   0.00000
1   0.01169   -2.70913   0.00000
1   2.28667   -1.19794   0.00000
1   2.28667   1.19794   0.00000
6   -3.99520   1.44283   0.00000
6   -5.21077   0.68972   0.00000
6   -5.21077   -0.68972   0.00000
6   -3.99520   -1.44283   0.00000
6   -2.84443   -0.71016   -0.00000
6   -2.84443   0.71016   -0.00000
1   -4.01664   2.52769   0.00000
1   -6.15751   1.22032   0.00000
1   -6.15751   -1.22032   0.00000
1   -4.01664   -2.52769   0.00000
5   -0.00853   -1.51505   0.00000
5   -0.00853   1.51505   0.00000
bq     1.32817     0.00000     1.70000
bq     1.22817     0.00000     1.70000
bq     1.12817     0.00000     1.70000
bq     1.02817     0.00000     1.70000
bq     0.92817     0.00000     1.70000
bq     0.82817     0.00000     1.70000
bq     0.72817     0.00000     1.70000
bq     0.62817     0.00000     1.70000
bq     0.52817     0.00000     1.70000
bq     0.42817     0.00000     1.70000
bq     0.32817     0.00000     1.70000
bq     0.22817     0.00000     1.70000
bq     0.12817     0.00000     1.70000
bq     -0.00000     0.00000     1.70000
bq     -0.10000     0.00000     1.70000
bq     -0.20000     0.00000     1.70000
bq     -0.30000     0.00000     1.70000
bq     -0.40000     0.00000     1.70000
bq     -0.50000     0.00000     1.70000
bq     -0.60000     0.00000     1.70000
bq     -0.70000     0.00000     1.70000
bq     -0.80000     0.00000     1.70000
bq     -0.90000     0.00000     1.70000
bq     -1.00000     0.00000     1.70000
bq     -1.10000     0.00000     1.70000
bq     -1.20000     0.00000     1.70000
bq     -1.31965     0.00000     1.70000
bq     -1.41965     0.00000     1.70000
bq     -1.51965     0.00000     1.70000
bq     -1.61965     0.00000     1.70000
bq     -1.71965     0.00000     1.70000
bq     -1.81965     0.00000     1.70000
bq     -1.91965     0.00000     1.70000
bq     -2.01965     0.00000     1.70000
bq     -2.08204     0.00000     1.70000
bq     -2.18204     0.00000     1.70000
bq     -2.28204     0.00000     1.70000
bq     -2.38204     0.00000     1.70000
bq     -2.48204     0.00000     1.70000
bq     -2.58204     0.00000     1.70000
bq     -2.68204     0.00000     1.70000
bq     -2.78204     0.00000     1.70000
bq     -2.84443     0.00000     1.70000
bq     -2.94443     -0.00000     1.70000
bq     -3.04443     -0.00000     1.70000
bq     -3.14443     -0.00000     1.70000
bq     -3.24443     -0.00000     1.70000
bq     -3.34443     -0.00000     1.70000
bq     -3.44443     -0.00000     1.70000
bq     -3.54443     -0.00000     1.70000

