%NPROC=1
%MEM=1024MB
# HF/STO-3G NMR=GIAO INTEGRAL=(GRID=ULTRAFINE) CPHF=(GRID=FINE)

----------------------------------------- # Center 1

0 3
6   -1.28035   0.73860   -0.00000
6   -1.28035   -0.73860   -0.00000
6   1.28170   -0.68885   0.00000
6   1.28170   0.68885   0.00000
1   0.03100   2.75861   0.00000
1   0.03100   -2.75861   -0.00000
1   2.25668   -1.18104   0.00000
1   2.25668   1.18104   0.00000
6   -3.92001   1.45763   0.00000
6   -5.10099   0.70595   0.00000
6   -5.10099   -0.70595   0.00000
6   -3.92001   -1.45763   0.00000
6   -2.74410   -0.71970   -0.00000
6   -2.74410   0.71970   -0.00000
1   -3.94118   2.54170   0.00000
1   -6.05710   1.21927   0.00000
1   -6.05710   -1.21927   0.00000
1   -3.94118   -2.54170   0.00000
5   -0.00134   -1.56365   -0.00000
5   -0.00134   1.56365   -0.00000
bq     3.00000     0.00000     1.70000
bq     2.50000     0.00000     1.70000
bq     2.00000     0.00000     1.70000
bq     1.50000     0.00000     1.70000
bq     1.00000     0.00000     1.70000
bq     0.50000     0.00000     1.70000
bq     -0.00000     0.00000     1.70000
bq     -0.50000     0.00000     1.70000
bq     -1.00000     0.00000     1.70000
bq     -1.50000     0.00000     1.70000
bq     -2.01222     0.00000     1.70000
bq     -2.51222     -0.00000     1.70000
bq     -3.01222     -0.00000     1.70000
bq     -3.51222     -0.00000     1.70000
bq     -4.01222     -0.00000     1.70000
bq     -3.92170     -0.00000     1.70000
bq     -4.42170     -0.00000     1.70000
bq     -4.92170     -0.00000     1.70000
bq     -5.42170     -0.00000     1.70000
bq     -5.92170     -0.00000     1.70000
bq     -6.42170     -0.00000     1.70000

