%NPROC=1
%MEM=1024MB
# HF/STO-3G NMR=GIAO INTEGRAL=(GRID=ULTRAFINE) CPHF=(GRID=FINE)

----------------------------------------- # Center 3

0 3
6   2.64135   0.73860   -0.00000
6   2.64135   -0.73860   -0.00000
6   5.20340   -0.68885   0.00000
6   5.20340   0.68885   0.00000
1   3.95270   2.75861   0.00000
1   3.95270   -2.75861   -0.00000
1   6.17838   -1.18104   0.00000
1   6.17838   1.18104   0.00000
6   0.00169   1.45763   0.00000
6   -1.17929   0.70595   0.00000
6   -1.17929   -0.70595   0.00000
6   0.00169   -1.45763   0.00000
6   1.17760   -0.71970   -0.00000
6   1.17760   0.71970   -0.00000
1   -0.01948   2.54170   0.00000
1   -2.13540   1.21927   0.00000
1   -2.13540   -1.21927   0.00000
1   -0.01948   -2.54170   0.00000
5   3.92036   -1.56365   -0.00000
5   3.92036   1.56365   -0.00000
bq     0.00000     -0.00000     0.00000
bq     0.00000     -0.00000     0.10000
bq     0.00000     -0.00000     0.20000
bq     0.00000     -0.00000     0.30000
bq     0.00000     -0.00000     0.40000
bq     0.00000     -0.00000     0.50000
bq     0.00000     -0.00000     0.60000
bq     0.00000     -0.00000     0.70000
bq     0.00000     -0.00000     0.80000
bq     0.00000     -0.00000     0.90000
bq     0.00000     -0.00000     1.00000
bq     0.00000     -0.00000     1.10000
bq     0.00000     -0.00000     1.20000
bq     0.00000     -0.00000     1.30000
bq     0.00000     -0.00000     1.40000
bq     0.00000     -0.00000     1.50000
bq     0.00000     -0.00000     1.60000
bq     0.00000     -0.00000     1.70000
bq     0.00000     -0.00000     1.80000
bq     0.00000     -0.00000     1.90000
bq     0.00000     -0.00000     2.00000
bq     0.00000     -0.00000     2.10000
bq     0.00000     -0.00000     2.20000
bq     0.00000     -0.00000     2.30000
bq     0.00000     -0.00000     2.40000
bq     0.00000     -0.00000     2.50000
bq     0.00000     -0.00000     2.60000
bq     0.00000     -0.00000     2.70000
bq     0.00000     -0.00000     2.80000
bq     0.00000     -0.00000     2.90000
bq     0.00000     -0.00000     3.00000
bq     0.00000     -0.00000     3.10000
bq     0.00000     -0.00000     3.20000
bq     0.00000     -0.00000     3.30000
bq     0.00000     -0.00000     3.40000
bq     0.00000     -0.00000     3.50000
bq     0.00000     -0.00000     3.60000
bq     0.00000     -0.00000     3.70000
bq     0.00000     -0.00000     3.80000
bq     0.00000     -0.00000     3.90000

