%NPROC=1
%MEM=1024MB
# HF/STO-3G NMR=GIAO INTEGRAL=(GRID=ULTRAFINE) CPHF=(GRID=FINE)

---------------------------------------------------------- # Center 2

0 3
6   -0.73187   0.73860   -0.00000
6   -0.73187   -0.73860   0.00000
6   0.73187   -0.71970   0.00000
6   1.90779   -1.45763   0.00000
6   3.08877   -0.70595   0.00000
6   3.08877   0.70595   -0.00000
6   1.90779   1.45763   -0.00000
6   0.73187   0.71970   -0.00000
1   1.92895   2.54170   -0.00000
1   4.04487   1.21927   -0.00000
1   4.04487   -1.21927   0.00000
1   1.92895   -2.54170   0.00000
5   -2.01088   -1.56365   0.00000
6   -3.29392   -0.68885   0.00000
6   -3.29392   0.68885   -0.00000
1   -4.26890   1.18104   -0.00000
5   -2.01088   1.56365   -0.00000
1   -2.04323   2.75861   -0.00000
1   -4.26890   -1.18104   0.00000
1   -2.04323   -2.75861   0.00000
1   -0.73187   0.82576   0.99620
1   -0.73187   -0.82576   0.99620
1   0.73187   -0.80686   0.99620
1   0.73187   0.80686   0.99620
1   -3.37069   -0.73011   0.99620
1   -3.37069   0.73011   0.99620
1   1.90769   1.54478   0.99619
1   3.16355   0.75071   0.99620
1   3.16355   -0.75071   0.99620
1   1.90769   -1.54478   0.99620
bq     0.00000     -0.00000     0.00000
bq     0.00000     -0.00000     -0.10000
bq     0.00000     -0.00000     -0.20000
bq     0.00000     -0.00000     -0.30000
bq     0.00000     -0.00000     -0.40000
bq     0.00000     -0.00000     -0.50000
bq     0.00000     -0.00000     -0.60000
bq     0.00000     -0.00000     -0.70000
bq     0.00000     -0.00000     -0.80000
bq     0.00000     -0.00000     -0.90000
bq     0.00000     -0.00000     -1.00000
bq     0.00000     -0.00000     -1.10000
bq     0.00000     -0.00000     -1.20000
bq     0.00000     -0.00000     -1.30000
bq     0.00000     -0.00000     -1.40000
bq     0.00000     -0.00000     -1.50000
bq     0.00000     -0.00000     -1.60000
bq     0.00000     -0.00000     -1.70000
bq     0.00000     -0.00000     -1.80000
bq     0.00000     -0.00000     -1.90000
bq     0.00000     -0.00000     -2.00000
bq     0.00000     -0.00000     -2.10000
bq     0.00000     -0.00000     -2.20000
bq     0.00000     -0.00000     -2.30000
bq     0.00000     -0.00000     -2.40000
bq     0.00000     -0.00000     -2.50000
bq     0.00000     -0.00000     -2.60000
bq     0.00000     -0.00000     -2.70000
bq     0.00000     -0.00000     -2.80000
bq     0.00000     -0.00000     -2.90000
bq     0.00000     -0.00000     -3.00000
bq     0.00000     -0.00000     -3.10000
bq     0.00000     -0.00000     -3.20000
bq     0.00000     -0.00000     -3.30000
bq     0.00000     -0.00000     -3.40000
bq     0.00000     -0.00000     -3.50000
bq     0.00000     -0.00000     -3.60000
bq     0.00000     -0.00000     -3.70000
bq     0.00000     -0.00000     -3.80000
bq     0.00000     -0.00000     -3.90000

