%NPROC=1
%MEM=1024MB
# HF/STO-3G NMR=GIAO INTEGRAL=(GRID=ULTRAFINE) CPHF=(GRID=FINE)

------------------------ # Center 1

1 1
6   0.00000   0.00000   0.00000
6   0.00000   0.00000   1.37636
6   1.35863   0.00000   1.80270
6   2.14501   -0.00030   0.67312
7   1.30907   -0.00018   -0.41725
1   1.61015   -0.00014   -1.37672
1   3.21754   -0.00048   0.55489
1   1.71753   0.00007   2.82157
1   -0.87668   0.00009   2.00748
1   -0.81266   0.00005   -0.70982
1   -0.07108   -0.99619   -0.05058
1   -0.07093   -0.99619   1.42714
1   1.38769   -0.99619   1.88495
1   2.23199   -0.99651   0.67217
1   1.33505   -0.99639   -0.50036
bq -8.00000     -8.00000     -8.00000
bq 0.00000     0.00000     0.00000
bq 3.00000     3.00000     3.00000

